     200         3
     199         1
     198         2
     197         2
     194         2
     193         1
     192         1
     191         3
     190         2
     189         1
     188         2
     187         2
     186         1
     185         4
     184         3
     183         3
     182         3
     181         2
     180         1
     179         4
     178         1
     177         4
     175         1
     174         1
     173         2
     172         1
     171         3
     170         2
     169         3
     167         2
     165         2
     164         1
     163         4
     162         1
     161         1
     160         2
     159         1
     158         3
     157         1
     156         6
     155         3
     154         2
     153         1
     152         3
     151         2
     150         4